; benchmark generated from python API
(set-info :status unknown)
(declare-fun cell_1_1 () Int)
(declare-fun cell_1_6 () Int)
(declare-fun cell_2_3 () Int)
(declare-fun cell_2_4 () Int)
(declare-fun cell_3_7 () Int)
(declare-fun cell_4_2 () Int)
(declare-fun cell_5_4 () Int)
(declare-fun cell_6_8 () Int)
(declare-fun cell_7_9 () Int)
(declare-fun cell_8_5 () Int)
(declare-fun cell_9_1 () Int)
(declare-fun cell_2_1 () Int)
(declare-fun cell_3_1 () Int)
(declare-fun cell_4_1 () Int)
(declare-fun cell_5_1 () Int)
(declare-fun cell_6_1 () Int)
(declare-fun cell_7_1 () Int)
(declare-fun cell_8_1 () Int)
(declare-fun cell_1_2 () Int)
(declare-fun cell_2_2 () Int)
(declare-fun cell_3_2 () Int)
(declare-fun cell_5_2 () Int)
(declare-fun cell_6_2 () Int)
(declare-fun cell_7_2 () Int)
(declare-fun cell_8_2 () Int)
(declare-fun cell_9_2 () Int)
(declare-fun cell_1_3 () Int)
(declare-fun cell_3_3 () Int)
(declare-fun cell_4_3 () Int)
(declare-fun cell_5_3 () Int)
(declare-fun cell_6_3 () Int)
(declare-fun cell_7_3 () Int)
(declare-fun cell_8_3 () Int)
(declare-fun cell_9_3 () Int)
(declare-fun cell_1_4 () Int)
(declare-fun cell_3_4 () Int)
(declare-fun cell_4_4 () Int)
(declare-fun cell_6_4 () Int)
(declare-fun cell_7_4 () Int)
(declare-fun cell_8_4 () Int)
(declare-fun cell_9_4 () Int)
(declare-fun cell_1_5 () Int)
(declare-fun cell_2_5 () Int)
(declare-fun cell_3_5 () Int)
(declare-fun cell_4_5 () Int)
(declare-fun cell_5_5 () Int)
(declare-fun cell_6_5 () Int)
(declare-fun cell_7_5 () Int)
(declare-fun cell_9_5 () Int)
(declare-fun cell_2_6 () Int)
(declare-fun cell_3_6 () Int)
(declare-fun cell_4_6 () Int)
(declare-fun cell_5_6 () Int)
(declare-fun cell_6_6 () Int)
(declare-fun cell_7_6 () Int)
(declare-fun cell_8_6 () Int)
(declare-fun cell_9_6 () Int)
(declare-fun cell_1_7 () Int)
(declare-fun cell_2_7 () Int)
(declare-fun cell_4_7 () Int)
(declare-fun cell_5_7 () Int)
(declare-fun cell_6_7 () Int)
(declare-fun cell_7_7 () Int)
(declare-fun cell_8_7 () Int)
(declare-fun cell_9_7 () Int)
(declare-fun cell_1_8 () Int)
(declare-fun cell_2_8 () Int)
(declare-fun cell_3_8 () Int)
(declare-fun cell_4_8 () Int)
(declare-fun cell_5_8 () Int)
(declare-fun cell_7_8 () Int)
(declare-fun cell_8_8 () Int)
(declare-fun cell_9_8 () Int)
(declare-fun cell_1_9 () Int)
(declare-fun cell_2_9 () Int)
(declare-fun cell_3_9 () Int)
(declare-fun cell_4_9 () Int)
(declare-fun cell_5_9 () Int)
(declare-fun cell_6_9 () Int)
(declare-fun cell_8_9 () Int)
(declare-fun cell_9_9 () Int)
(assert
 (= cell_1_1 2))
(assert
 (= cell_1_6 1))
(assert
 (= cell_2_3 1))
(assert
 (= cell_2_4 2))
(assert
 (= cell_3_7 1))
(assert
 (= cell_4_2 1))
(assert
 (= cell_5_4 1))
(assert
 (= cell_6_8 1))
(assert
 (= cell_7_9 1))
(assert
 (= cell_8_5 1))
(assert
 (= cell_9_1 1))
(assert
 (let (($x9017 (= cell_1_1 2)))
 (or (= cell_1_1 1) $x9017 (= cell_1_1 3) (= cell_1_1 4) (= cell_1_1 5) (= cell_1_1 6) (= cell_1_1 7) (= cell_1_1 8) (= cell_1_1 9))))
(assert
 (let (($x2138 (= cell_2_1 9)))
 (let (($x295 (= cell_2_1 8)))
 (let (($x588 (= cell_2_1 7)))
 (let (($x6205 (= cell_2_1 6)))
 (let (($x5743 (= cell_2_1 5)))
 (let (($x8130 (= cell_2_1 4)))
 (let (($x3355 (= cell_2_1 3)))
 (let (($x4447 (= cell_2_1 2)))
 (let (($x5826 (= cell_2_1 1)))
 (or $x5826 $x4447 $x3355 $x8130 $x5743 $x6205 $x588 $x295 $x2138)))))))))))
(assert
 (let (($x7859 (= cell_3_1 9)))
 (let (($x3405 (= cell_3_1 8)))
 (let (($x361 (= cell_3_1 7)))
 (let (($x2408 (= cell_3_1 6)))
 (let (($x9612 (= cell_3_1 5)))
 (let (($x2067 (= cell_3_1 4)))
 (let (($x5254 (= cell_3_1 3)))
 (let (($x2615 (= cell_3_1 2)))
 (let (($x2123 (= cell_3_1 1)))
 (or $x2123 $x2615 $x5254 $x2067 $x9612 $x2408 $x361 $x3405 $x7859)))))))))))
(assert
 (let (($x6652 (= cell_4_1 9)))
 (let (($x1220 (= cell_4_1 8)))
 (let (($x8739 (= cell_4_1 7)))
 (let (($x5074 (= cell_4_1 6)))
 (let (($x6773 (= cell_4_1 5)))
 (let (($x6142 (= cell_4_1 4)))
 (let (($x3116 (= cell_4_1 3)))
 (let (($x10051 (= cell_4_1 2)))
 (let (($x7388 (= cell_4_1 1)))
 (or $x7388 $x10051 $x3116 $x6142 $x6773 $x5074 $x8739 $x1220 $x6652)))))))))))
(assert
 (let (($x4510 (= cell_5_1 9)))
 (let (($x4337 (= cell_5_1 8)))
 (let (($x2178 (= cell_5_1 7)))
 (let (($x1407 (= cell_5_1 6)))
 (let (($x9587 (= cell_5_1 5)))
 (let (($x8098 (= cell_5_1 4)))
 (let (($x4868 (= cell_5_1 3)))
 (let (($x7621 (= cell_5_1 2)))
 (let (($x1415 (= cell_5_1 1)))
 (or $x1415 $x7621 $x4868 $x8098 $x9587 $x1407 $x2178 $x4337 $x4510)))))))))))
(assert
 (let (($x1280 (= cell_6_1 9)))
 (let (($x8294 (= cell_6_1 8)))
 (let (($x7838 (= cell_6_1 7)))
 (let (($x7329 (= cell_6_1 6)))
 (let (($x633 (= cell_6_1 5)))
 (let (($x6608 (= cell_6_1 4)))
 (let (($x6607 (= cell_6_1 3)))
 (let (($x2956 (= cell_6_1 2)))
 (let (($x5376 (= cell_6_1 1)))
 (or $x5376 $x2956 $x6607 $x6608 $x633 $x7329 $x7838 $x8294 $x1280)))))))))))
(assert
 (let (($x5569 (= cell_7_1 9)))
 (let (($x9443 (= cell_7_1 8)))
 (let (($x2964 (= cell_7_1 7)))
 (let (($x9001 (= cell_7_1 6)))
 (let (($x8283 (= cell_7_1 5)))
 (let (($x6353 (= cell_7_1 4)))
 (let (($x5248 (= cell_7_1 3)))
 (let (($x4280 (= cell_7_1 2)))
 (let (($x9366 (= cell_7_1 1)))
 (or $x9366 $x4280 $x5248 $x6353 $x8283 $x9001 $x2964 $x9443 $x5569)))))))))))
(assert
 (let (($x6533 (= cell_8_1 9)))
 (let (($x2160 (= cell_8_1 8)))
 (let (($x6865 (= cell_8_1 7)))
 (let (($x6297 (= cell_8_1 6)))
 (let (($x5465 (= cell_8_1 5)))
 (let (($x936 (= cell_8_1 4)))
 (let (($x4920 (= cell_8_1 3)))
 (let (($x5423 (= cell_8_1 2)))
 (let (($x5990 (= cell_8_1 1)))
 (or $x5990 $x5423 $x4920 $x936 $x5465 $x6297 $x6865 $x2160 $x6533)))))))))))
(assert
 (let (($x886 (= cell_9_1 1)))
 (or $x886 (= cell_9_1 2) (= cell_9_1 3) (= cell_9_1 4) (= cell_9_1 5) (= cell_9_1 6) (= cell_9_1 7) (= cell_9_1 8) (= cell_9_1 9))))
(assert
 (let (($x2740 (= cell_1_2 9)))
 (let (($x10121 (= cell_1_2 8)))
 (let (($x4752 (= cell_1_2 7)))
 (let (($x4487 (= cell_1_2 6)))
 (let (($x3286 (= cell_1_2 5)))
 (let (($x10055 (= cell_1_2 4)))
 (let (($x8452 (= cell_1_2 3)))
 (let (($x1557 (= cell_1_2 2)))
 (let (($x9433 (= cell_1_2 1)))
 (or $x9433 $x1557 $x8452 $x10055 $x3286 $x4487 $x4752 $x10121 $x2740)))))))))))
(assert
 (let (($x8813 (= cell_2_2 9)))
 (let (($x5035 (= cell_2_2 8)))
 (let (($x9969 (= cell_2_2 7)))
 (let (($x414 (= cell_2_2 6)))
 (let (($x3840 (= cell_2_2 5)))
 (let (($x6065 (= cell_2_2 4)))
 (let (($x2134 (= cell_2_2 3)))
 (let (($x6529 (= cell_2_2 2)))
 (let (($x4690 (= cell_2_2 1)))
 (or $x4690 $x6529 $x2134 $x6065 $x3840 $x414 $x9969 $x5035 $x8813)))))))))))
(assert
 (let (($x1271 (= cell_3_2 9)))
 (let (($x529 (= cell_3_2 8)))
 (let (($x6647 (= cell_3_2 7)))
 (let (($x7995 (= cell_3_2 6)))
 (let (($x9262 (= cell_3_2 5)))
 (let (($x915 (= cell_3_2 4)))
 (let (($x4740 (= cell_3_2 3)))
 (let (($x4569 (= cell_3_2 2)))
 (let (($x5252 (= cell_3_2 1)))
 (or $x5252 $x4569 $x4740 $x915 $x9262 $x7995 $x6647 $x529 $x1271)))))))))))
(assert
 (let (($x9853 (= cell_4_2 1)))
 (or $x9853 (= cell_4_2 2) (= cell_4_2 3) (= cell_4_2 4) (= cell_4_2 5) (= cell_4_2 6) (= cell_4_2 7) (= cell_4_2 8) (= cell_4_2 9))))
(assert
 (let (($x2440 (= cell_5_2 9)))
 (let (($x6874 (= cell_5_2 8)))
 (let (($x7429 (= cell_5_2 7)))
 (let (($x9102 (= cell_5_2 6)))
 (let (($x152 (= cell_5_2 5)))
 (let (($x7590 (= cell_5_2 4)))
 (let (($x2013 (= cell_5_2 3)))
 (let (($x3540 (= cell_5_2 2)))
 (let (($x7089 (= cell_5_2 1)))
 (or $x7089 $x3540 $x2013 $x7590 $x152 $x9102 $x7429 $x6874 $x2440)))))))))))
(assert
 (let (($x7768 (= cell_6_2 9)))
 (let (($x3632 (= cell_6_2 8)))
 (let (($x8493 (= cell_6_2 7)))
 (let (($x1659 (= cell_6_2 6)))
 (let (($x4076 (= cell_6_2 5)))
 (let (($x631 (= cell_6_2 4)))
 (let (($x8884 (= cell_6_2 3)))
 (let (($x1224 (= cell_6_2 2)))
 (let (($x1347 (= cell_6_2 1)))
 (or $x1347 $x1224 $x8884 $x631 $x4076 $x1659 $x8493 $x3632 $x7768)))))))))))
(assert
 (let (($x6309 (= cell_7_2 9)))
 (let (($x6450 (= cell_7_2 8)))
 (let (($x264 (= cell_7_2 7)))
 (let (($x7238 (= cell_7_2 6)))
 (let (($x7432 (= cell_7_2 5)))
 (let (($x3639 (= cell_7_2 4)))
 (let (($x4292 (= cell_7_2 3)))
 (let (($x9198 (= cell_7_2 2)))
 (let (($x4583 (= cell_7_2 1)))
 (or $x4583 $x9198 $x4292 $x3639 $x7432 $x7238 $x264 $x6450 $x6309)))))))))))
(assert
 (let (($x2576 (= cell_8_2 9)))
 (let (($x2033 (= cell_8_2 8)))
 (let (($x1242 (= cell_8_2 7)))
 (let (($x8741 (= cell_8_2 6)))
 (let (($x6030 (= cell_8_2 5)))
 (let (($x5149 (= cell_8_2 4)))
 (let (($x6927 (= cell_8_2 3)))
 (let (($x309 (= cell_8_2 2)))
 (let (($x9640 (= cell_8_2 1)))
 (or $x9640 $x309 $x6927 $x5149 $x6030 $x8741 $x1242 $x2033 $x2576)))))))))))
(assert
 (let (($x4771 (= cell_9_2 1)))
 (or $x4771 (= cell_9_2 2) (= cell_9_2 3) (= cell_9_2 4) (= cell_9_2 5) (= cell_9_2 6) (= cell_9_2 7) (= cell_9_2 8) (= cell_9_2 9))))
(assert
 (let (($x4205 (= cell_1_3 9)))
 (let (($x3829 (= cell_1_3 8)))
 (let (($x3718 (= cell_1_3 7)))
 (let (($x4735 (= cell_1_3 6)))
 (let (($x8104 (= cell_1_3 5)))
 (let (($x2183 (= cell_1_3 4)))
 (let (($x7619 (= cell_1_3 3)))
 (let (($x1570 (= cell_1_3 2)))
 (let (($x2904 (= cell_1_3 1)))
 (or $x2904 $x1570 $x7619 $x2183 $x8104 $x4735 $x3718 $x3829 $x4205)))))))))))
(assert
 (let (($x8319 (= cell_2_3 1)))
 (or $x8319 (= cell_2_3 2) (= cell_2_3 3) (= cell_2_3 4) (= cell_2_3 5) (= cell_2_3 6) (= cell_2_3 7) (= cell_2_3 8) (= cell_2_3 9))))
(assert
 (let (($x1164 (= cell_3_3 9)))
 (let (($x482 (= cell_3_3 8)))
 (let (($x8717 (= cell_3_3 7)))
 (let (($x6868 (= cell_3_3 6)))
 (let (($x2052 (= cell_3_3 5)))
 (let (($x4462 (= cell_3_3 4)))
 (let (($x3698 (= cell_3_3 3)))
 (let (($x6554 (= cell_3_3 2)))
 (let (($x6631 (= cell_3_3 1)))
 (or $x6631 $x6554 $x3698 $x4462 $x2052 $x6868 $x8717 $x482 $x1164)))))))))))
(assert
 (let (($x758 (= cell_4_3 9)))
 (let (($x9904 (= cell_4_3 8)))
 (let (($x7343 (= cell_4_3 7)))
 (let (($x3248 (= cell_4_3 6)))
 (let (($x7613 (= cell_4_3 5)))
 (let (($x79 (= cell_4_3 4)))
 (let (($x6408 (= cell_4_3 3)))
 (let (($x8834 (= cell_4_3 2)))
 (let (($x6733 (= cell_4_3 1)))
 (or $x6733 $x8834 $x6408 $x79 $x7613 $x3248 $x7343 $x9904 $x758)))))))))))
(assert
 (let (($x6528 (= cell_5_3 9)))
 (let (($x3207 (= cell_5_3 8)))
 (let (($x890 (= cell_5_3 7)))
 (let (($x5406 (= cell_5_3 6)))
 (let (($x9025 (= cell_5_3 5)))
 (let (($x6446 (= cell_5_3 4)))
 (let (($x4043 (= cell_5_3 3)))
 (let (($x2130 (= cell_5_3 2)))
 (let (($x5876 (= cell_5_3 1)))
 (or $x5876 $x2130 $x4043 $x6446 $x9025 $x5406 $x890 $x3207 $x6528)))))))))))
(assert
 (let (($x2767 (= cell_6_3 9)))
 (let (($x9325 (= cell_6_3 8)))
 (let (($x1793 (= cell_6_3 7)))
 (let (($x7988 (= cell_6_3 6)))
 (let (($x7335 (= cell_6_3 5)))
 (let (($x4245 (= cell_6_3 4)))
 (let (($x3387 (= cell_6_3 3)))
 (let (($x5796 (= cell_6_3 2)))
 (let (($x3691 (= cell_6_3 1)))
 (or $x3691 $x5796 $x3387 $x4245 $x7335 $x7988 $x1793 $x9325 $x2767)))))))))))
(assert
 (let (($x4299 (= cell_7_3 9)))
 (let (($x9396 (= cell_7_3 8)))
 (let (($x9571 (= cell_7_3 7)))
 (let (($x5488 (= cell_7_3 6)))
 (let (($x3265 (= cell_7_3 5)))
 (let (($x4650 (= cell_7_3 4)))
 (let (($x7833 (= cell_7_3 3)))
 (let (($x1228 (= cell_7_3 2)))
 (let (($x5289 (= cell_7_3 1)))
 (or $x5289 $x1228 $x7833 $x4650 $x3265 $x5488 $x9571 $x9396 $x4299)))))))))))
(assert
 (let (($x2053 (= cell_8_3 9)))
 (let (($x5182 (= cell_8_3 8)))
 (let (($x3167 (= cell_8_3 7)))
 (let (($x2663 (= cell_8_3 6)))
 (let (($x2574 (= cell_8_3 5)))
 (let (($x1647 (= cell_8_3 4)))
 (let (($x1240 (= cell_8_3 3)))
 (let (($x1064 (= cell_8_3 2)))
 (let (($x9595 (= cell_8_3 1)))
 (or $x9595 $x1064 $x1240 $x1647 $x2574 $x2663 $x3167 $x5182 $x2053)))))))))))
(assert
 (let (($x8632 (= cell_9_3 1)))
 (or $x8632 (= cell_9_3 2) (= cell_9_3 3) (= cell_9_3 4) (= cell_9_3 5) (= cell_9_3 6) (= cell_9_3 7) (= cell_9_3 8) (= cell_9_3 9))))
(assert
 (let (($x5795 (= cell_1_4 9)))
 (let (($x1337 (= cell_1_4 8)))
 (let (($x4120 (= cell_1_4 7)))
 (let (($x4654 (= cell_1_4 6)))
 (let (($x178 (= cell_1_4 5)))
 (let (($x6863 (= cell_1_4 4)))
 (let (($x8141 (= cell_1_4 3)))
 (let (($x3924 (= cell_1_4 2)))
 (let (($x9260 (= cell_1_4 1)))
 (or $x9260 $x3924 $x8141 $x6863 $x178 $x4654 $x4120 $x1337 $x5795)))))))))))
(assert
 (let (($x9899 (= cell_2_4 2)))
 (or (= cell_2_4 1) $x9899 (= cell_2_4 3) (= cell_2_4 4) (= cell_2_4 5) (= cell_2_4 6) (= cell_2_4 7) (= cell_2_4 8) (= cell_2_4 9))))
(assert
 (let (($x8333 (= cell_3_4 9)))
 (let (($x8690 (= cell_3_4 8)))
 (let (($x2860 (= cell_3_4 7)))
 (let (($x5410 (= cell_3_4 6)))
 (let (($x5383 (= cell_3_4 5)))
 (let (($x8760 (= cell_3_4 4)))
 (let (($x2499 (= cell_3_4 3)))
 (let (($x6617 (= cell_3_4 2)))
 (let (($x4189 (= cell_3_4 1)))
 (or $x4189 $x6617 $x2499 $x8760 $x5383 $x5410 $x2860 $x8690 $x8333)))))))))))
(assert
 (let (($x6425 (= cell_4_4 9)))
 (let (($x7050 (= cell_4_4 8)))
 (let (($x7804 (= cell_4_4 7)))
 (let (($x8176 (= cell_4_4 6)))
 (let (($x2344 (= cell_4_4 5)))
 (let (($x3327 (= cell_4_4 4)))
 (let (($x9513 (= cell_4_4 3)))
 (let (($x1232 (= cell_4_4 2)))
 (let (($x2934 (= cell_4_4 1)))
 (or $x2934 $x1232 $x9513 $x3327 $x2344 $x8176 $x7804 $x7050 $x6425)))))))))))
(assert
 (let (($x4731 (= cell_5_4 1)))
 (or $x4731 (= cell_5_4 2) (= cell_5_4 3) (= cell_5_4 4) (= cell_5_4 5) (= cell_5_4 6) (= cell_5_4 7) (= cell_5_4 8) (= cell_5_4 9))))
(assert
 (let (($x9119 (= cell_6_4 9)))
 (let (($x8519 (= cell_6_4 8)))
 (let (($x5722 (= cell_6_4 7)))
 (let (($x1210 (= cell_6_4 6)))
 (let (($x1270 (= cell_6_4 5)))
 (let (($x6234 (= cell_6_4 4)))
 (let (($x894 (= cell_6_4 3)))
 (let (($x1061 (= cell_6_4 2)))
 (let (($x25 (= cell_6_4 1)))
 (or $x25 $x1061 $x894 $x6234 $x1270 $x1210 $x5722 $x8519 $x9119)))))))))))
(assert
 (let (($x6000 (= cell_7_4 9)))
 (let (($x8078 (= cell_7_4 8)))
 (let (($x2290 (= cell_7_4 7)))
 (let (($x479 (= cell_7_4 6)))
 (let (($x1683 (= cell_7_4 5)))
 (let (($x3591 (= cell_7_4 4)))
 (let (($x2985 (= cell_7_4 3)))
 (let (($x9559 (= cell_7_4 2)))
 (let (($x8023 (= cell_7_4 1)))
 (or $x8023 $x9559 $x2985 $x3591 $x1683 $x479 $x2290 $x8078 $x6000)))))))))))
(assert
 (let (($x6134 (= cell_8_4 9)))
 (let (($x2822 (= cell_8_4 8)))
 (let (($x8855 (= cell_8_4 7)))
 (let (($x9979 (= cell_8_4 6)))
 (let (($x8056 (= cell_8_4 5)))
 (let (($x8621 (= cell_8_4 4)))
 (let (($x4198 (= cell_8_4 3)))
 (let (($x7627 (= cell_8_4 2)))
 (let (($x1880 (= cell_8_4 1)))
 (or $x1880 $x7627 $x4198 $x8621 $x8056 $x9979 $x8855 $x2822 $x6134)))))))))))
(assert
 (let (($x3173 (= cell_9_4 2)))
 (let (($x6023 (= cell_9_4 1)))
 (or $x6023 $x3173 (= cell_9_4 3) (= cell_9_4 4) (= cell_9_4 5) (= cell_9_4 6) (= cell_9_4 7) (= cell_9_4 8) (= cell_9_4 9)))))
(assert
 (let (($x84 (= cell_1_5 9)))
 (let (($x142 (= cell_1_5 8)))
 (let (($x8783 (= cell_1_5 7)))
 (let (($x4664 (= cell_1_5 6)))
 (let (($x2318 (= cell_1_5 5)))
 (let (($x6230 (= cell_1_5 4)))
 (let (($x7254 (= cell_1_5 3)))
 (let (($x6882 (= cell_1_5 2)))
 (let (($x1781 (= cell_1_5 1)))
 (or $x1781 $x6882 $x7254 $x6230 $x2318 $x4664 $x8783 $x142 $x84)))))))))))
(assert
 (let (($x4915 (= cell_2_5 9)))
 (let (($x1403 (= cell_2_5 8)))
 (let (($x5646 (= cell_2_5 7)))
 (let (($x1919 (= cell_2_5 6)))
 (let (($x7586 (= cell_2_5 5)))
 (let (($x5928 (= cell_2_5 4)))
 (let (($x7103 (= cell_2_5 3)))
 (let (($x5156 (= cell_2_5 2)))
 (let (($x7516 (= cell_2_5 1)))
 (or $x7516 $x5156 $x7103 $x5928 $x7586 $x1919 $x5646 $x1403 $x4915)))))))))))
(assert
 (let (($x1743 (= cell_3_5 9)))
 (let (($x5633 (= cell_3_5 8)))
 (let (($x4769 (= cell_3_5 7)))
 (let (($x7936 (= cell_3_5 6)))
 (let (($x2588 (= cell_3_5 5)))
 (let (($x8655 (= cell_3_5 4)))
 (let (($x9786 (= cell_3_5 3)))
 (let (($x9163 (= cell_3_5 2)))
 (let (($x3376 (= cell_3_5 1)))
 (or $x3376 $x9163 $x9786 $x8655 $x2588 $x7936 $x4769 $x5633 $x1743)))))))))))
(assert
 (let (($x8660 (= cell_4_5 9)))
 (let (($x8679 (= cell_4_5 8)))
 (let (($x8990 (= cell_4_5 7)))
 (let (($x9091 (= cell_4_5 6)))
 (let (($x1685 (= cell_4_5 5)))
 (let (($x4958 (= cell_4_5 4)))
 (let (($x4862 (= cell_4_5 3)))
 (let (($x3809 (= cell_4_5 2)))
 (let (($x3985 (= cell_4_5 1)))
 (or $x3985 $x3809 $x4862 $x4958 $x1685 $x9091 $x8990 $x8679 $x8660)))))))))))
(assert
 (let (($x438 (= cell_5_5 9)))
 (let (($x9910 (= cell_5_5 8)))
 (let (($x4972 (= cell_5_5 7)))
 (let (($x1238 (= cell_5_5 6)))
 (let (($x8589 (= cell_5_5 5)))
 (let (($x2867 (= cell_5_5 4)))
 (let (($x2085 (= cell_5_5 3)))
 (let (($x2637 (= cell_5_5 2)))
 (let (($x1010 (= cell_5_5 1)))
 (or $x1010 $x2637 $x2085 $x2867 $x8589 $x1238 $x4972 $x9910 $x438)))))))))))
(assert
 (let (($x6388 (= cell_6_5 9)))
 (let (($x6113 (= cell_6_5 8)))
 (let (($x4152 (= cell_6_5 7)))
 (let (($x4116 (= cell_6_5 6)))
 (let (($x2267 (= cell_6_5 5)))
 (let (($x2338 (= cell_6_5 4)))
 (let (($x8902 (= cell_6_5 3)))
 (let (($x3621 (= cell_6_5 2)))
 (let (($x4881 (= cell_6_5 1)))
 (or $x4881 $x3621 $x8902 $x2338 $x2267 $x4116 $x4152 $x6113 $x6388)))))))))))
(assert
 (let (($x2855 (= cell_7_5 9)))
 (let (($x1178 (= cell_7_5 8)))
 (let (($x2157 (= cell_7_5 7)))
 (let (($x2607 (= cell_7_5 6)))
 (let (($x1887 (= cell_7_5 5)))
 (let (($x5578 (= cell_7_5 4)))
 (let (($x7426 (= cell_7_5 3)))
 (let (($x7150 (= cell_7_5 2)))
 (let (($x8682 (= cell_7_5 1)))
 (or $x8682 $x7150 $x7426 $x5578 $x1887 $x2607 $x2157 $x1178 $x2855)))))))))))
(assert
 (let (($x8010 (= cell_8_5 1)))
 (or $x8010 (= cell_8_5 2) (= cell_8_5 3) (= cell_8_5 4) (= cell_8_5 5) (= cell_8_5 6) (= cell_8_5 7) (= cell_8_5 8) (= cell_8_5 9))))
(assert
 (let (($x842 (= cell_9_5 1)))
 (or $x842 (= cell_9_5 2) (= cell_9_5 3) (= cell_9_5 4) (= cell_9_5 5) (= cell_9_5 6) (= cell_9_5 7) (= cell_9_5 8) (= cell_9_5 9))))
(assert
 (let (($x2547 (= cell_1_6 1)))
 (or $x2547 (= cell_1_6 2) (= cell_1_6 3) (= cell_1_6 4) (= cell_1_6 5) (= cell_1_6 6) (= cell_1_6 7) (= cell_1_6 8) (= cell_1_6 9))))
(assert
 (let (($x2402 (= cell_2_6 9)))
 (let (($x7486 (= cell_2_6 8)))
 (let (($x410 (= cell_2_6 7)))
 (let (($x4287 (= cell_2_6 6)))
 (let (($x4794 (= cell_2_6 5)))
 (let (($x9472 (= cell_2_6 4)))
 (let (($x5405 (= cell_2_6 3)))
 (let (($x2209 (= cell_2_6 2)))
 (let (($x597 (= cell_2_6 1)))
 (or $x597 $x2209 $x5405 $x9472 $x4794 $x4287 $x410 $x7486 $x2402)))))))))))
(assert
 (let (($x3055 (= cell_3_6 9)))
 (let (($x1541 (= cell_3_6 8)))
 (let (($x8730 (= cell_3_6 7)))
 (let (($x4890 (= cell_3_6 6)))
 (let (($x8950 (= cell_3_6 5)))
 (let (($x2019 (= cell_3_6 4)))
 (let (($x1349 (= cell_3_6 3)))
 (let (($x5228 (= cell_3_6 2)))
 (let (($x7885 (= cell_3_6 1)))
 (or $x7885 $x5228 $x1349 $x2019 $x8950 $x4890 $x8730 $x1541 $x3055)))))))))))
(assert
 (let (($x174 (= cell_4_6 9)))
 (let (($x9297 (= cell_4_6 8)))
 (let (($x5748 (= cell_4_6 7)))
 (let (($x355 (= cell_4_6 6)))
 (let (($x8315 (= cell_4_6 5)))
 (let (($x6453 (= cell_4_6 4)))
 (let (($x3825 (= cell_4_6 3)))
 (let (($x6096 (= cell_4_6 2)))
 (let (($x3938 (= cell_4_6 1)))
 (or $x3938 $x6096 $x3825 $x6453 $x8315 $x355 $x5748 $x9297 $x174)))))))))))
(assert
 (let (($x1344 (= cell_5_6 1)))
 (or $x1344 (= cell_5_6 2) (= cell_5_6 3) (= cell_5_6 4) (= cell_5_6 5) (= cell_5_6 6) (= cell_5_6 7) (= cell_5_6 8) (= cell_5_6 9))))
(assert
 (let (($x724 (= cell_6_6 9)))
 (let (($x9190 (= cell_6_6 8)))
 (let (($x1801 (= cell_6_6 7)))
 (let (($x4123 (= cell_6_6 6)))
 (let (($x4274 (= cell_6_6 5)))
 (let (($x773 (= cell_6_6 4)))
 (let (($x5661 (= cell_6_6 3)))
 (let (($x5193 (= cell_6_6 2)))
 (let (($x106 (= cell_6_6 1)))
 (or $x106 $x5193 $x5661 $x773 $x4274 $x4123 $x1801 $x9190 $x724)))))))))))
(assert
 (let (($x1458 (= cell_7_6 9)))
 (let (($x2228 (= cell_7_6 8)))
 (let (($x248 (= cell_7_6 7)))
 (let (($x5807 (= cell_7_6 6)))
 (let (($x986 (= cell_7_6 5)))
 (let (($x4127 (= cell_7_6 4)))
 (let (($x8841 (= cell_7_6 3)))
 (let (($x4105 (= cell_7_6 2)))
 (let (($x1198 (= cell_7_6 1)))
 (or $x1198 $x4105 $x8841 $x4127 $x986 $x5807 $x248 $x2228 $x1458)))))))))))
(assert
 (let (($x6433 (= cell_8_6 1)))
 (or $x6433 (= cell_8_6 2) (= cell_8_6 3) (= cell_8_6 4) (= cell_8_6 5) (= cell_8_6 6) (= cell_8_6 7) (= cell_8_6 8) (= cell_8_6 9))))
(assert
 (let (($x5117 (= cell_9_6 1)))
 (or $x5117 (= cell_9_6 2) (= cell_9_6 3) (= cell_9_6 4) (= cell_9_6 5) (= cell_9_6 6) (= cell_9_6 7) (= cell_9_6 8) (= cell_9_6 9))))
(assert
 (let (($x3170 (= cell_1_7 9)))
 (let (($x10087 (= cell_1_7 8)))
 (let (($x8442 (= cell_1_7 7)))
 (let (($x74 (= cell_1_7 6)))
 (let (($x5364 (= cell_1_7 5)))
 (let (($x5133 (= cell_1_7 4)))
 (let (($x5457 (= cell_1_7 3)))
 (let (($x7055 (= cell_1_7 2)))
 (let (($x4642 (= cell_1_7 1)))
 (or $x4642 $x7055 $x5457 $x5133 $x5364 $x74 $x8442 $x10087 $x3170)))))))))))
(assert
 (let (($x9081 (= cell_2_7 9)))
 (let (($x5596 (= cell_2_7 8)))
 (let (($x7287 (= cell_2_7 7)))
 (let (($x7716 (= cell_2_7 6)))
 (let (($x3943 (= cell_2_7 5)))
 (let (($x5085 (= cell_2_7 4)))
 (let (($x136 (= cell_2_7 3)))
 (let (($x4100 (= cell_2_7 2)))
 (let (($x1560 (= cell_2_7 1)))
 (or $x1560 $x4100 $x136 $x5085 $x3943 $x7716 $x7287 $x5596 $x9081)))))))))))
(assert
 (let (($x7689 (= cell_3_7 1)))
 (or $x7689 (= cell_3_7 2) (= cell_3_7 3) (= cell_3_7 4) (= cell_3_7 5) (= cell_3_7 6) (= cell_3_7 7) (= cell_3_7 8) (= cell_3_7 9))))
(assert
 (let (($x8170 (= cell_4_7 9)))
 (let (($x3136 (= cell_4_7 8)))
 (let (($x9474 (= cell_4_7 7)))
 (let (($x6634 (= cell_4_7 6)))
 (let (($x4932 (= cell_4_7 5)))
 (let (($x4391 (= cell_4_7 4)))
 (let (($x9641 (= cell_4_7 3)))
 (let (($x6641 (= cell_4_7 2)))
 (let (($x3061 (= cell_4_7 1)))
 (or $x3061 $x6641 $x9641 $x4391 $x4932 $x6634 $x9474 $x3136 $x8170)))))))))))
(assert
 (let (($x3117 (= cell_5_7 9)))
 (let (($x7526 (= cell_5_7 8)))
 (let (($x5991 (= cell_5_7 7)))
 (let (($x6211 (= cell_5_7 6)))
 (let (($x6587 (= cell_5_7 5)))
 (let (($x8716 (= cell_5_7 4)))
 (let (($x2695 (= cell_5_7 3)))
 (let (($x4950 (= cell_5_7 2)))
 (let (($x7864 (= cell_5_7 1)))
 (or $x7864 $x4950 $x2695 $x8716 $x6587 $x6211 $x5991 $x7526 $x3117)))))))))))
(assert
 (let (($x451 (= cell_6_7 9)))
 (let (($x849 (= cell_6_7 8)))
 (let (($x926 (= cell_6_7 7)))
 (let (($x2686 (= cell_6_7 6)))
 (let (($x6251 (= cell_6_7 5)))
 (let (($x9079 (= cell_6_7 4)))
 (let (($x1199 (= cell_6_7 3)))
 (let (($x5691 (= cell_6_7 2)))
 (let (($x3612 (= cell_6_7 1)))
 (or $x3612 $x5691 $x1199 $x9079 $x6251 $x2686 $x926 $x849 $x451)))))))))))
(assert
 (let (($x2601 (= cell_7_7 9)))
 (let (($x4316 (= cell_7_7 8)))
 (let (($x2947 (= cell_7_7 7)))
 (let (($x2136 (= cell_7_7 6)))
 (let (($x872 (= cell_7_7 5)))
 (let (($x4827 (= cell_7_7 4)))
 (let (($x5373 (= cell_7_7 3)))
 (let (($x1299 (= cell_7_7 2)))
 (let (($x5543 (= cell_7_7 1)))
 (or $x5543 $x1299 $x5373 $x4827 $x872 $x2136 $x2947 $x4316 $x2601)))))))))))
(assert
 (let (($x7392 (= cell_8_7 1)))
 (or $x7392 (= cell_8_7 2) (= cell_8_7 3) (= cell_8_7 4) (= cell_8_7 5) (= cell_8_7 6) (= cell_8_7 7) (= cell_8_7 8) (= cell_8_7 9))))
(assert
 (let (($x1657 (= cell_9_7 1)))
 (or $x1657 (= cell_9_7 2) (= cell_9_7 3) (= cell_9_7 4) (= cell_9_7 5) (= cell_9_7 6) (= cell_9_7 7) (= cell_9_7 8) (= cell_9_7 9))))
(assert
 (let (($x7555 (= cell_1_8 9)))
 (let (($x9410 (= cell_1_8 8)))
 (let (($x10037 (= cell_1_8 7)))
 (let (($x2312 (= cell_1_8 6)))
 (let (($x1838 (= cell_1_8 5)))
 (let (($x5757 (= cell_1_8 4)))
 (let (($x7387 (= cell_1_8 3)))
 (let (($x3076 (= cell_1_8 2)))
 (let (($x3725 (= cell_1_8 1)))
 (or $x3725 $x3076 $x7387 $x5757 $x1838 $x2312 $x10037 $x9410 $x7555)))))))))))
(assert
 (let (($x170 (= cell_2_8 9)))
 (let (($x4585 (= cell_2_8 8)))
 (let (($x6475 (= cell_2_8 7)))
 (let (($x9948 (= cell_2_8 6)))
 (let (($x7622 (= cell_2_8 5)))
 (let (($x8043 (= cell_2_8 4)))
 (let (($x9962 (= cell_2_8 3)))
 (let (($x2980 (= cell_2_8 2)))
 (let (($x2175 (= cell_2_8 1)))
 (or $x2175 $x2980 $x9962 $x8043 $x7622 $x9948 $x6475 $x4585 $x170)))))))))))
(assert
 (let (($x3138 (= cell_3_8 9)))
 (let (($x5306 (= cell_3_8 8)))
 (let (($x1353 (= cell_3_8 7)))
 (let (($x790 (= cell_3_8 6)))
 (let (($x796 (= cell_3_8 5)))
 (let (($x8067 (= cell_3_8 4)))
 (let (($x582 (= cell_3_8 3)))
 (let (($x779 (= cell_3_8 2)))
 (let (($x3075 (= cell_3_8 1)))
 (or $x3075 $x779 $x582 $x8067 $x796 $x790 $x1353 $x5306 $x3138)))))))))))
(assert
 (let (($x4387 (= cell_4_8 9)))
 (let (($x4701 (= cell_4_8 8)))
 (let (($x7965 (= cell_4_8 7)))
 (let (($x6381 (= cell_4_8 6)))
 (let (($x7316 (= cell_4_8 5)))
 (let (($x856 (= cell_4_8 4)))
 (let (($x8852 (= cell_4_8 3)))
 (let (($x2182 (= cell_4_8 2)))
 (let (($x3181 (= cell_4_8 1)))
 (or $x3181 $x2182 $x8852 $x856 $x7316 $x6381 $x7965 $x4701 $x4387)))))))))))
(assert
 (let (($x1295 (= cell_5_8 9)))
 (let (($x369 (= cell_5_8 8)))
 (let (($x303 (= cell_5_8 7)))
 (let (($x236 (= cell_5_8 6)))
 (let (($x6131 (= cell_5_8 5)))
 (let (($x974 (= cell_5_8 4)))
 (let (($x8966 (= cell_5_8 3)))
 (let (($x9706 (= cell_5_8 2)))
 (let (($x9426 (= cell_5_8 1)))
 (or $x9426 $x9706 $x8966 $x974 $x6131 $x236 $x303 $x369 $x1295)))))))))))
(assert
 (let (($x9029 (= cell_6_8 1)))
 (or $x9029 (= cell_6_8 2) (= cell_6_8 3) (= cell_6_8 4) (= cell_6_8 5) (= cell_6_8 6) (= cell_6_8 7) (= cell_6_8 8) (= cell_6_8 9))))
(assert
 (let (($x4118 (= cell_7_8 9)))
 (let (($x258 (= cell_7_8 8)))
 (let (($x1842 (= cell_7_8 7)))
 (let (($x895 (= cell_7_8 6)))
 (let (($x4640 (= cell_7_8 5)))
 (let (($x9767 (= cell_7_8 4)))
 (let (($x4825 (= cell_7_8 3)))
 (let (($x5899 (= cell_7_8 2)))
 (let (($x1499 (= cell_7_8 1)))
 (or $x1499 $x5899 $x4825 $x9767 $x4640 $x895 $x1842 $x258 $x4118)))))))))))
(assert
 (let (($x9999 (= cell_8_8 1)))
 (or $x9999 (= cell_8_8 2) (= cell_8_8 3) (= cell_8_8 4) (= cell_8_8 5) (= cell_8_8 6) (= cell_8_8 7) (= cell_8_8 8) (= cell_8_8 9))))
(assert
 (let (($x7490 (= cell_9_8 1)))
 (or $x7490 (= cell_9_8 2) (= cell_9_8 3) (= cell_9_8 4) (= cell_9_8 5) (= cell_9_8 6) (= cell_9_8 7) (= cell_9_8 8) (= cell_9_8 9))))
(assert
 (let (($x7837 (= cell_1_9 9)))
 (let (($x2469 (= cell_1_9 8)))
 (let (($x3178 (= cell_1_9 7)))
 (let (($x146 (= cell_1_9 6)))
 (let (($x3279 (= cell_1_9 5)))
 (let (($x5580 (= cell_1_9 4)))
 (let (($x6926 (= cell_1_9 3)))
 (let (($x8920 (= cell_1_9 2)))
 (let (($x4529 (= cell_1_9 1)))
 (or $x4529 $x8920 $x6926 $x5580 $x3279 $x146 $x3178 $x2469 $x7837)))))))))))
(assert
 (let (($x8417 (= cell_2_9 9)))
 (let (($x6346 (= cell_2_9 8)))
 (let (($x2537 (= cell_2_9 7)))
 (let (($x2582 (= cell_2_9 6)))
 (let (($x4370 (= cell_2_9 5)))
 (let (($x4197 (= cell_2_9 4)))
 (let (($x8978 (= cell_2_9 3)))
 (let (($x4451 (= cell_2_9 2)))
 (let (($x821 (= cell_2_9 1)))
 (or $x821 $x4451 $x8978 $x4197 $x4370 $x2582 $x2537 $x6346 $x8417)))))))))))
(assert
 (let (($x9797 (= cell_3_9 9)))
 (let (($x4069 (= cell_3_9 8)))
 (let (($x5946 (= cell_3_9 7)))
 (let (($x914 (= cell_3_9 6)))
 (let (($x2231 (= cell_3_9 5)))
 (let (($x5919 (= cell_3_9 4)))
 (let (($x8209 (= cell_3_9 3)))
 (let (($x32 (= cell_3_9 2)))
 (let (($x834 (= cell_3_9 1)))
 (or $x834 $x32 $x8209 $x5919 $x2231 $x914 $x5946 $x4069 $x9797)))))))))))
(assert
 (let (($x7858 (= cell_4_9 9)))
 (let (($x5907 (= cell_4_9 8)))
 (let (($x4347 (= cell_4_9 7)))
 (let (($x3087 (= cell_4_9 6)))
 (let (($x4267 (= cell_4_9 5)))
 (let (($x3029 (= cell_4_9 4)))
 (let (($x2316 (= cell_4_9 3)))
 (let (($x6857 (= cell_4_9 2)))
 (let (($x347 (= cell_4_9 1)))
 (or $x347 $x6857 $x2316 $x3029 $x4267 $x3087 $x4347 $x5907 $x7858)))))))))))
(assert
 (let (($x10282 (= cell_5_9 9)))
 (let (($x10078 (= cell_5_9 8)))
 (let (($x6332 (= cell_5_9 7)))
 (let (($x5478 (= cell_5_9 6)))
 (let (($x5651 (= cell_5_9 5)))
 (let (($x6266 (= cell_5_9 4)))
 (let (($x5083 (= cell_5_9 3)))
 (let (($x1757 (= cell_5_9 2)))
 (let (($x8110 (= cell_5_9 1)))
 (or $x8110 $x1757 $x5083 $x6266 $x5651 $x5478 $x6332 $x10078 $x10282)))))))))))
(assert
 (let (($x2763 (= cell_6_9 9)))
 (let (($x6567 (= cell_6_9 8)))
 (let (($x1000 (= cell_6_9 7)))
 (let (($x7315 (= cell_6_9 6)))
 (let (($x6071 (= cell_6_9 5)))
 (let (($x3299 (= cell_6_9 4)))
 (let (($x5706 (= cell_6_9 3)))
 (let (($x3197 (= cell_6_9 2)))
 (let (($x9324 (= cell_6_9 1)))
 (or $x9324 $x3197 $x5706 $x3299 $x6071 $x7315 $x1000 $x6567 $x2763)))))))))))
(assert
 (let (($x1830 (= cell_7_9 1)))
 (or $x1830 (= cell_7_9 2) (= cell_7_9 3) (= cell_7_9 4) (= cell_7_9 5) (= cell_7_9 6) (= cell_7_9 7) (= cell_7_9 8) (= cell_7_9 9))))
(assert
 (let (($x4311 (= cell_8_9 1)))
 (or $x4311 (= cell_8_9 2) (= cell_8_9 3) (= cell_8_9 4) (= cell_8_9 5) (= cell_8_9 6) (= cell_8_9 7) (= cell_8_9 8) (= cell_8_9 9))))
(assert
 (let (($x4424 (= cell_9_9 1)))
 (or $x4424 (= cell_9_9 2) (= cell_9_9 3) (= cell_9_9 4) (= cell_9_9 5) (= cell_9_9 6) (= cell_9_9 7) (= cell_9_9 8) (= cell_9_9 9))))
(assert
 (and (distinct cell_1_1 cell_1_2 cell_1_3 cell_1_4 cell_1_5 cell_1_6 cell_1_7 cell_1_8 cell_1_9) true))
(assert
 (and (distinct cell_2_1 cell_2_2 cell_2_3 cell_2_4 cell_2_5 cell_2_6 cell_2_7 cell_2_8 cell_2_9) true))
(assert
 (and (distinct cell_3_1 cell_3_2 cell_3_3 cell_3_4 cell_3_5 cell_3_6 cell_3_7 cell_3_8 cell_3_9) true))
(assert
 (and (distinct cell_4_1 cell_4_2 cell_4_3 cell_4_4 cell_4_5 cell_4_6 cell_4_7 cell_4_8 cell_4_9) true))
(assert
 (and (distinct cell_5_1 cell_5_2 cell_5_3 cell_5_4 cell_5_5 cell_5_6 cell_5_7 cell_5_8 cell_5_9) true))
(assert
 (and (distinct cell_6_1 cell_6_2 cell_6_3 cell_6_4 cell_6_5 cell_6_6 cell_6_7 cell_6_8 cell_6_9) true))
(assert
 (and (distinct cell_7_1 cell_7_2 cell_7_3 cell_7_4 cell_7_5 cell_7_6 cell_7_7 cell_7_8 cell_7_9) true))
(assert
 (and (distinct cell_8_1 cell_8_2 cell_8_3 cell_8_4 cell_8_5 cell_8_6 cell_8_7 cell_8_8 cell_8_9) true))
(assert
 (and (distinct cell_9_1 cell_9_2 cell_9_3 cell_9_4 cell_9_5 cell_9_6 cell_9_7 cell_9_8 cell_9_9) true))
(assert
 (and (distinct cell_1_1 cell_2_1 cell_3_1 cell_4_1 cell_5_1 cell_6_1 cell_7_1 cell_8_1 cell_9_1) true))
(assert
 (and (distinct cell_1_2 cell_2_2 cell_3_2 cell_4_2 cell_5_2 cell_6_2 cell_7_2 cell_8_2 cell_9_2) true))
(assert
 (and (distinct cell_1_3 cell_2_3 cell_3_3 cell_4_3 cell_5_3 cell_6_3 cell_7_3 cell_8_3 cell_9_3) true))
(assert
 (and (distinct cell_1_4 cell_2_4 cell_3_4 cell_4_4 cell_5_4 cell_6_4 cell_7_4 cell_8_4 cell_9_4) true))
(assert
 (and (distinct cell_1_5 cell_2_5 cell_3_5 cell_4_5 cell_5_5 cell_6_5 cell_7_5 cell_8_5 cell_9_5) true))
(assert
 (and (distinct cell_1_6 cell_2_6 cell_3_6 cell_4_6 cell_5_6 cell_6_6 cell_7_6 cell_8_6 cell_9_6) true))
(assert
 (and (distinct cell_1_7 cell_2_7 cell_3_7 cell_4_7 cell_5_7 cell_6_7 cell_7_7 cell_8_7 cell_9_7) true))
(assert
 (and (distinct cell_1_8 cell_2_8 cell_3_8 cell_4_8 cell_5_8 cell_6_8 cell_7_8 cell_8_8 cell_9_8) true))
(assert
 (and (distinct cell_1_9 cell_2_9 cell_3_9 cell_4_9 cell_5_9 cell_6_9 cell_7_9 cell_8_9 cell_9_9) true))
(assert
 (and (distinct cell_1_1 cell_1_2 cell_1_3 cell_2_1 cell_2_2 cell_2_3 cell_3_1 cell_3_2 cell_3_3) true))
(assert
 (and (distinct cell_1_4 cell_1_5 cell_1_6 cell_2_4 cell_2_5 cell_2_6 cell_3_4 cell_3_5 cell_3_6) true))
(assert
 (and (distinct cell_1_7 cell_1_8 cell_1_9 cell_2_7 cell_2_8 cell_2_9 cell_3_7 cell_3_8 cell_3_9) true))
(assert
 (and (distinct cell_4_1 cell_4_2 cell_4_3 cell_5_1 cell_5_2 cell_5_3 cell_6_1 cell_6_2 cell_6_3) true))
(assert
 (and (distinct cell_4_4 cell_4_5 cell_4_6 cell_5_4 cell_5_5 cell_5_6 cell_6_4 cell_6_5 cell_6_6) true))
(assert
 (and (distinct cell_4_7 cell_4_8 cell_4_9 cell_5_7 cell_5_8 cell_5_9 cell_6_7 cell_6_8 cell_6_9) true))
(assert
 (and (distinct cell_7_1 cell_7_2 cell_7_3 cell_8_1 cell_8_2 cell_8_3 cell_9_1 cell_9_2 cell_9_3) true))
(assert
 (and (distinct cell_7_4 cell_7_5 cell_7_6 cell_8_4 cell_8_5 cell_8_6 cell_9_4 cell_9_5 cell_9_6) true))
(assert
 (and (distinct cell_7_7 cell_7_8 cell_7_9 cell_8_7 cell_8_8 cell_8_9 cell_9_7 cell_9_8 cell_9_9) true))
(assert
 (let (($x3074 (and (distinct cell_5_9 cell_6_8 cell_7_7 cell_8_6) true)))
 (let (($x5604 (and (distinct cell_2_9 cell_3_8 cell_4_7 cell_5_6 cell_6_5 cell_7_4 cell_8_3 cell_9_2) true)))
 (let (($x3486 (and (distinct cell_1_8 cell_2_7 cell_3_6 cell_4_5 cell_5_4 cell_6_3 cell_7_2 cell_8_1) true)))
 (let (($x8068 (and (distinct cell_1_5 cell_2_4 cell_3_3 cell_4_2) true)))
 (let (($x844 (and (distinct cell_5_1 cell_6_2 cell_7_3 cell_8_4) true)))
 (let (($x5686 (and (distinct cell_2_1 cell_3_2 cell_4_3 cell_5_4 cell_6_5 cell_7_6 cell_8_7 cell_9_8) true)))
 (let (($x1135 (and (distinct cell_1_2 cell_2_3 cell_3_4 cell_4_5 cell_5_6 cell_6_7 cell_7_8 cell_8_9) true)))
 (let (($x1963 (and (distinct cell_1_5 cell_2_6 cell_3_7 cell_4_8) true)))
 (and $x1963 $x1135 $x5686 $x844 $x8068 $x3486 $x5604 $x3074))))))))))
(assert
 (= cell_3_8 2))
(check-sat)
